1 1 2 0
1 -1 -3 0
1 4 -5 0
1 4 -2 0
1 4 1 0
1 -4 -3 0
1 -6 7 0
1 -6 8 0
1 -6 -9 0
1 6 -2 0
1 -6 10 0
1 -6 -11 0
1 -6 -12 0
1 9 -7 0
1 -9 -8 0
1 9 -13 0
1 9 2 0
1 9 -14 0
1 9 6 0
1 -9 -12 0
1 9 -3 0
1 -10 -15 0
1 -10 -16 0
1 10 -9 0
1 -10 17 0
1 -10 -18 0
1 10 -6 0
1 10 -1 0
1 -10 3 0
1 -3 -16 0
1 3 4 0
1 3 10 0
1 3 -17 0
1 3 19 0
1 -3 6 0
1 3 -1 0
1 2 15 0
1 -2 -20 0
1 2 21 0
1 -2 4 0
1 -2 -22 0
1 -2 17 0
1 -2 -1 0
1 12 -20 0
1 12 21 0
1 12 9 0
1 12 2 0
1 12 -17 0
1 -12 23 0
1 -12 -6 0
1 -12 24 0
1 -19 -8 0
1 19 10 0
1 -19 14 0
1 -19 -11 0
1 19 -3 0
1 -16 -7 0
1 16 -8 0
1 16 -21 0
1 16 10 0
1 16 -14 0
1 -16 -11 0
1 16 19 0
1 16 3 0
1 18 7 0
1 -18 8 0
1 18 25 0
1 -18 -26 0
1 18 -10 0
1 -18 -14 0
1 18 11 0
1 18 3 0
1 -27 -7 0
1 -27 -20 0
1 27 -14 0
1 27 -28 0
1 27 -29 0
1 27 3 0
1 11 30 0
1 -11 16 0
1 -11 31 0
1 11 -32 0
1 -11 -19 0
1 8 -33 0
1 -8 -34 0
1 -8 -9 0
1 8 35 0
1 8 -36 0
1 -8 31 0
1 -8 11 0
1 8 -18 0
1 -8 19 0
1 -8 -6 0
1 -14 37 0
1 -14 -9 0
1 14 35 0
1 14 38 0
1 -14 18 0
1 -14 -39 0
1 7 -37 0
1 -7 -40 0
1 -7 27 0
1 7 35 0
1 7 -38 0
1 -7 -17 0
1 -7 19 0
1 7 6 0
1 -7 -39 0
1 31 -8 0
1 31 26 0
1 -31 -11 0
1 -31 -29 0
1 30 8 0
1 30 -15 0
1 -30 31 0
1 -30 28 0
1 -36 33 0
1 -36 8 0
1 36 -25 0
1 36 38 0
1 -36 11 0
1 -36 28 0
1 36 29 0
1 -33 -37 0
1 33 -8 0
1 33 25 0
1 33 26 0
1 -33 29 0
1 29 -27 0
1 -29 -26 0
1 -29 36 0
1 -29 18 0
1 -26 30 0
1 26 -27 0
1 26 -41 0
1 26 -36 0
1 26 -31 0
1 -26 18 0
1 -26 -29 0
1 26 42 0
1 28 30 0
1 28 27 0
1 28 -25 0
1 -28 41 0
1 -28 35 0
1 28 31 0
1 -28 -18 0
1 -28 -42 0
1 28 -43 0
1 -28 39 0
1 -25 33 0
1 -25 -30 0
1 -25 44 0
1 25 41 0
1 25 45 0
1 -25 35 0
1 25 -36 0
1 25 -42 0
1 -25 43 0
1 -25 39 0
1 -46 47 0
1 -46 5 0
1 46 -48 0
1 46 1 0
1 -5 -49 0
1 -5 -4 0
1 -5 -48 0
1 5 50 0
1 5 -46 0
1 51 -49 0
1 -51 52 0
1 51 -53 0
1 51 13 0
1 -51 48 0
1 51 -50 0
1 -51 -54 0
1 -51 -55 0
1 -13 47 0
1 13 -49 0
1 13 -52 0
1 -13 53 0
1 13 -9 0
1 -13 -48 0
1 13 -50 0
1 -13 51 0
1 -49 -20 0
1 49 56 0
1 49 21 0
1 49 -13 0
1 49 5 0
1 -49 -50 0
1 49 23 0
1 49 -51 0
1 49 -46 0
1 50 49 0
1 -50 13 0
1 50 -5 0
1 50 57 0
1 50 -58 0
1 50 51 0
1 50 -46 0
1 -47 59 0
1 47 -13 0
1 -48 -47 0
1 48 -13 0
1 -48 5 0
1 -48 -60 0
1 -48 -51 0
1 -58 -49 0
1 58 52 0
1 -58 -21 0
1 -58 -53 0
1 -58 2 0
1 58 50 0
1 -58 -54 0
1 -58 19 0
1 -21 -49 0
1 -21 -52 0
1 -21 -16 0
1 21 -2 0
1 21 55 0
1 21 58 0
1 21 -12 0
1 -23 -49 0
1 23 -20 0
1 -23 -52 0
1 23 -53 0
1 -23 -61 0
1 23 2 0
1 23 -50 0
1 23 54 0
1 -23 -62 0
1 23 12 0
1 20 55 0
1 -20 -27 0
1 -20 -52 0
1 -20 -61 0
1 20 63 0
1 20 -50 0
1 -20 54 0
1 20 23 0
1 -20 64 0
1 20 62 0
1 20 -12 0
1 -53 -55 0
1 53 -37 0
1 -53 -15 0
1 -53 -21 0
1 -53 65 0
1 53 66 0
1 53 38 0
1 -53 -23 0
1 -53 -58 0
1 -55 67 0
1 -55 15 0
1 -55 -21 0
1 -55 -53 0
1 55 13 0
1 55 66 0
1 55 -38 0
1 -55 -17 0
1 -55 -23 0
1 -55 -68 0
1 55 -58 0
1 55 51 0
1 52 -67 0
1 52 -21 0
1 -52 66 0
1 52 -54 0
1 52 58 0
1 54 -52 0
1 -54 21 0
1 54 -13 0
1 -54 -66 0
1 -54 -69 0
1 54 58 0
1 -17 -7 0
1 -17 -15 0
1 -17 53 0
1 17 61 0
1 17 -63 0
1 -17 -2 0
1 -17 10 0
1 -17 -14 0
1 -17 -31 0
1 -17 64 0
1 -17 62 0
1 -17 -3 0
1 -15 -7 0
1 -15 -30 0
1 -15 53 0
1 -15 63 0
1 -15 -2 0
1 -15 -14 0
1 -15 -17 0
1 -15 -55 0
1 15 -64 0
1 15 62 0
1 -15 12 0
1 15 3 0
1 -38 -70 0
1 -38 -7 0
1 38 37 0
1 -38 -53 0
1 -38 -63 0
1 38 -71 0
1 -38 -14 0
1 -38 55 0
1 -38 -64 0
1 38 24 0
1 -37 70 0
1 37 -7 0
1 37 61 0
1 37 -63 0
1 -37 71 0
1 -37 14 0
1 37 -55 0
1 -37 -64 0
1 -37 -24 0
1 63 37 0
1 63 -20 0
1 -63 -72 0
1 63 45 0
1 -63 35 0
1 63 -38 0
1 63 -17 0
1 63 23 0
1 63 62 0
1 63 73 0
1 62 -37 0
1 -62 15 0
1 62 -63 0
1 -62 72 0
1 -62 45 0
1 -62 -35 0
1 62 74 0
1 -62 38 0
1 62 -17 0
1 62 23 0
1 -62 -73 0
1 -62 43 0
1 -62 -39 0
1 61 67 0
1 61 -37 0
1 61 -20 0
1 61 -75 0
1 -61 66 0
1 61 -38 0
1 61 17 0
1 -61 23 0
1 -61 64 0
1 -61 73 0
1 61 76 0
1 64 -20 0
1 64 72 0
1 64 -77 0
1 -64 66 0
1 64 23 0
1 64 78 0
1 -64 -76 0
1 -35 -70 0
1 35 -8 0
1 35 -22 0
1 -35 -66 0
1 -35 -14 0
1 -35 11 0
1 35 24 0
1 -35 -39 0
1 -39 -7 0
1 39 70 0
1 39 -8 0
1 -39 -25 0
1 -39 -63 0
1 39 -22 0
1 39 -35 0
1 -39 71 0
1 -39 -14 0
1 -39 -62 0
1 39 24 0
1 -45 -70 0
1 -45 -40 0
1 -45 -34 0
1 45 25 0
1 -45 -22 0
1 45 -71 0
1 -45 -79 0
1 45 32 0
1 45 28 0
1 -45 62 0
1 -45 43 0
1 -45 24 0
1 43 -70 0
1 -43 34 0
1 -43 -25 0
1 -43 -63 0
1 43 45 0
1 -43 -28 0
1 43 -62 0
1 43 -76 0
1 -71 70 0
1 -71 -80 0
1 -71 81 0
1 71 -45 0
1 71 10 0
1 71 -38 0
1 71 82 0
1 71 -83 0
1 -71 42 0
1 -71 39 0
1 70 -80 0
1 70 81 0
1 70 -41 0
1 70 45 0
1 -70 35 0
1 70 -38 0
1 70 82 0
1 -70 83 0
1 -70 -39 0
1 22 37 0
1 22 80 0
1 22 -45 0
1 -22 -35 0
1 -22 -84 0
1 22 73 0
1 -22 43 0
1 24 80 0
1 24 -85 0
1 24 -72 0
1 24 -45 0
1 -24 22 0
1 -24 38 0
1 24 -82 0
1 -24 -84 0
1 24 -43 0
1 -24 -39 0
1 -41 -70 0
1 -41 25 0
1 41 -34 0
1 41 -26 0
1 -41 -72 0
1 41 -71 0
1 -41 -79 0
1 41 32 0
1 41 28 0
1 41 29 0
1 -41 42 0
1 42 70 0
1 -42 -40 0
1 -42 25 0
1 42 -41 0
1 42 -71 0
1 42 -79 0
1 42 -32 0
1 -42 -28 0
1 42 -29 0
1 42 73 0
1 81 -40 0
1 81 -34 0
1 81 86 0
1 81 -71 0
1 81 79 0
1 -81 -87 0
1 83 -40 0
1 -83 -86 0
1 -83 -81 0
1 -83 -79 0
1 83 32 0
1 83 87 0
1 -83 84 0
1 32 -34 0
1 -32 88 0
1 32 -89 0
1 32 41 0
1 32 -45 0
1 -32 -11 0
1 32 90 0
1 -32 91 0
1 32 83 0
1 34 -8 0
1 34 88 0
1 -34 89 0
1 34 81 0
1 -34 -41 0
1 34 -90 0
1 34 91 0
1 34 83 0
1 34 -42 0
1 -34 -43 0
1 -79 -40 0
1 -79 80 0
1 79 -14 0
1 -79 92 0
1 79 82 0
1 -79 -83 0
1 -79 43 0
1 40 7 0
1 40 -80 0
1 -40 41 0
1 40 -45 0
1 40 79 0
1 40 -82 0
1 40 -42 0
1 -40 -43 0
1 89 -44 0
1 -89 -86 0
1 -89 80 0
1 89 32 0
1 -91 34 0
1 -91 -44 0
1 -91 -86 0
1 -91 32 0
1 -91 93 0
1 -91 -82 0
1 -91 87 0
1 88 -86 0
1 88 90 0
1 -88 -87 0
1 90 -88 0
1 90 44 0
1 90 86 0
1 90 92 0
1 -90 -93 0
1 90 87 0
1 87 88 0
1 -87 86 0
1 -87 -81 0
1 87 90 0
1 -87 91 0
1 -87 -83 0
1 86 -88 0
1 -86 26 0
1 86 89 0
1 -86 81 0
1 -86 -91 0
1 86 -83 0
1 86 87 0
1 -93 -81 0
1 93 90 0
1 -93 28 0
1 -93 91 0
1 93 83 0
1 44 25 0
1 44 88 0
1 -44 89 0
1 -44 -93 0
1 -44 90 0
1 -44 -91 0
1 66 -67 0
1 -66 59 0
1 66 56 0
1 66 52 0
1 -66 53 0
1 -66 -61 0
1 -66 -35 0
1 -66 60 0
1 -66 57 0
1 66 -54 0
1 -66 55 0
1 -67 52 0
1 67 -53 0
1 -67 61 0
1 -67 60 0
1 67 54 0
1 67 55 0
1 67 64 0
1 67 39 0
1 -77 59 0
1 77 65 0
1 -77 61 0
1 77 45 0
1 77 -69 0
1 -77 68 0
1 -77 -64 0
1 77 76 0
1 -76 59 0
1 -76 56 0
1 76 -94 0
1 -76 65 0
1 76 -77 0
1 -76 -60 0
1 -76 -69 0
1 76 -43 0
1 -56 67 0
1 -56 -85 0
1 56 84 0
1 -56 73 0
1 -56 76 0
1 -57 -56 0
1 57 85 0
1 -57 -77 0
1 57 -84 0
1 57 -76 0
1 -59 67 0
1 -59 -47 0
1 -59 77 0
1 -59 66 0
1 -59 60 0
1 -59 -76 0
1 60 -67 0
1 60 59 0
1 -60 -77 0
1 -60 -66 0
1 -60 -48 0
1 -72 -56 0
1 -72 94 0
1 72 61 0
1 72 41 0
1 -72 -63 0
1 72 57 0
1 -72 -69 0
1 72 68 0
1 72 -64 0
1 72 -62 0
1 -72 73 0
1 72 24 0
1 73 -56 0
1 -73 -94 0
1 -73 -65 0
1 73 61 0
1 73 63 0
1 73 72 0
1 -73 22 0
1 73 -57 0
1 -73 69 0
1 73 -64 0
1 73 -42 0
1 -85 56 0
1 -85 -94 0
1 85 -65 0
1 -85 95 0
1 85 -22 0
1 85 -69 0
1 85 68 0
1 -85 -84 0
1 85 -74 0
1 -85 24 0
1 -84 94 0
1 84 65 0
1 84 85 0
1 84 -75 0
1 -84 95 0
1 -84 22 0
1 -84 -57 0
1 84 69 0
1 84 -68 0
1 -84 78 0
1 -84 -24 0
1 -65 96 0
1 -65 53 0
1 65 80 0
1 65 85 0
1 -65 -72 0
1 -65 -77 0
1 -65 -82 0
1 65 -84 0
1 -65 73 0
1 65 76 0
1 -68 -80 0
1 -68 65 0
1 68 85 0
1 -68 77 0
1 68 -55 0
1 68 -82 0
1 68 -84 0
1 68 73 0
1 68 -76 0
1 94 -52 0
1 -94 -85 0
1 -94 -72 0
1 94 -77 0
1 94 -76 0
1 -69 72 0
1 -69 -77 0
1 69 84 0
1 69 -73 0
1 -69 76 0
1 80 68 0
1 80 89 0
1 80 65 0
1 -80 22 0
1 80 -79 0
1 80 78 0
1 82 40 0
1 -82 -65 0
1 -82 -75 0
1 -82 -95 0
1 -82 22 0
1 82 -79 0
1 -82 -68 0
1 82 -78 0
1 82 -74 0
1 -96 -40 0
1 -96 65 0
1 -96 95 0
1 -96 92 0
1 96 68 0
1 -96 78 0
1 -96 74 0
1 92 -96 0
1 -92 -95 0
1 -92 79 0
1 -92 90 0
1 -92 -68 0
1 92 74 0
1 -95 -96 0
1 -95 63 0
1 95 92 0
1 -95 82 0
1 95 -84 0
1 -95 -74 0
1 -74 96 0
1 -74 -80 0
1 74 85 0
1 -74 -92 0
1 -74 -84 0
1 74 -62 0
1 75 -78 0
1 -75 80 0
1 75 -61 0
1 -75 82 0
1 78 96 0
1 78 -80 0
1 78 -75 0
1 78 -92 0
1 -78 -82 0
1 -78 64 0
1 78 -84 0
